benchmarks/bfuzz0/1823977381123241972834290632234629502.smt2
(set-logic QF_FP)
(declare-const x0 (_ FloatingPoint 8 24))
(declare-const x1 (_ FloatingPoint 8 24))
(declare-const x2 (_ FloatingPoint 8 24))
(declare-const x3 (_ FloatingPoint 8 24))
(declare-const x4 (_ FloatingPoint 8 24))
(declare-const x5 (_ FloatingPoint 8 24))
(assert (fp.gt (fp.div RNE (fp.neg (fp.sub RNE x1 x3)) (fp.add RNE (fp.add RNE x0 x3) (fp.sub RNE x2 x2))) (fp.add RNE (fp.mul RNE (fp.neg x3) (fp.mul RNE x2 x5)) (fp.mul RNE (fp.neg x2) (fp.add RNE x1 x1)))))
(assert (fp.leq (fp.sub RNE (fp.neg (fp.div RNE x5 x4)) (fp.sub RNE (fp.sub RNE x4 x1) (fp.div RNE x2 x1))) (fp.sub RNE (fp.mul RNE (fp.neg x1) (fp.add RNE x4 x3)) (fp.div RNE (fp.neg x4) (fp.div RNE x2 x4)))))
(assert (fp.eq (fp.sub RNE (fp.mul RNE (fp.add RNE x3 x3) (fp.mul RNE x4 x5)) (fp.sub RNE (fp.mul RNE x0 x3) (fp.sub RNE x1 x5))) (fp.sub RNE (fp.div RNE (fp.neg x5) (fp.mul RNE x2 x5)) (fp.add RNE (fp.div RNE x2 x0) (fp.neg x5)))))
(check-sat)
