db/data/1823977381123241972834290632234629502.z3.out
sat
-------------------
329.490690392
